
******************************************************************************
This program contains Ipopt, a library for large-scale nonlinear optimization.
 Ipopt is released as open source code under the Eclipse Public License (EPL).
         For more information visit http://projects.coin-or.org/Ipopt
******************************************************************************

This is Ipopt version 3.12.6, running with linear solver ma57.

Number of nonzeros in equality constraint Jacobian...:        0
Number of nonzeros in inequality constraint Jacobian.:        4
Number of nonzeros in Lagrangian Hessian.............:        2

Total number of variables............................:        2
                     variables with only lower bounds:        0
                variables with lower and upper bounds:        0
                     variables with only upper bounds:        0
Total number of equality constraints.................:        0
Total number of inequality constraints...............:        2
        inequality constraints with only lower bounds:        2
   inequality constraints with lower and upper bounds:        0
        inequality constraints with only upper bounds:        0

iter    objective    inf_pr   inf_du lg(mu)  ||d||  lg(rg) alpha_du alpha_pr  ls
   0  1.0000000e+00 2.00e+00 1.60e+00  -1.0 0.00e+00    -  0.00e+00 0.00e+00   0
   1  7.7596054e-01 6.02e-01 9.40e-02  -1.0 1.26e+00    -  1.00e+00 1.00e+00f  1
   2  9.3079926e-01 1.77e-01 7.27e-02  -1.7 2.14e-01    -  1.00e+00 7.69e-01h  1
   3  1.0058510e+00 0.00e+00 1.08e-02  -2.5 9.23e-02    -  1.00e+00 1.00e+00h  1
   4  1.0003042e+00 0.00e+00 1.40e-05  -3.8 5.74e-03    -  1.00e+00 1.00e+00h  1
   5  1.0000038e+00 0.00e+00 3.12e-08  -5.7 2.52e-04    -  1.00e+00 1.00e+00h  1
   6  9.9999999e-01 0.00e+00 5.35e-12  -8.6 2.88e-06    -  1.00e+00 1.00e+00h  1

Number of Iterations....: 6

                                   (scaled)                 (unscaled)
Objective...............:   9.9999999168989762e-01    9.9999999168989762e-01
Dual infeasibility......:   5.3501647556686294e-12    5.3501647556686294e-12
Constraint violation....:   0.0000000000000000e+00    0.0000000000000000e+00
Complementarity.........:   2.5157255328557684e-09    2.5157255328557684e-09
Overall NLP error.......:   2.5157255328557684e-09    2.5157255328557684e-09


Number of objective function evaluations             = 7
Number of objective gradient evaluations             = 7
Number of equality constraint evaluations            = 0
Number of inequality constraint evaluations          = 7
Number of equality constraint Jacobian evaluations   = 0
Number of inequality constraint Jacobian evaluations = 7
Number of Lagrangian Hessian evaluations             = 6
Total CPU secs in IPOPT (w/o function evaluations)   =      0.003
Total CPU secs in NLP function evaluations           =      0.003

EXIT: Optimal Solution Found.

************************ CUTEst statistics ************************


 Package used            :  IPOPT
 Problem                 :  HS22      
 # variables             =               2
 # constraints           =               2
 # objective functions   =        0.1500000E+02
 # objective gradients   =        0.8000000E+01
 # objective Hessians    =        0.7000000E+01
 # Hessian-vector prdct  =        0.0000000E+00
 # constraints functions =        0.1600000E+02
 # constraints gradients =        0.9000000E+01
 # constraints Hessians  =        0.7000000E+01
 Exit code               =               0
 Final f                 =   0.1000000E+01
 Set up time             =            0.00 seconds
 Solve time              =            0.01 seconds


******************************************************************

System Time =       0.0030000000 s.
